\* Problem: Unknown *\

Maximize
 obj: + xp_0_0 + xp_0_1 + xp_0_2 + xp_0_3 + xp_0_4 + xp_0_5 + xp_0_6
 + xp_0_7 + xp_1_0 + xp_1_1 + xp_1_2 + xp_2_0 + xp_2_1 + xp_2_2 + xp_2_3
 + xp_2_4 + xp_2_5 + xp_3_0 + xp_3_1 + xp_3_2 + xp_3_3 + xp_4_0 + xp_4_1
 + xp_5_0 + xp_5_1 + xp_5_2 + xp_6_0 + xp_6_1 + xp_6_2 + xp_6_3 + xp_6_4
 + xp_7_0 + xp_7_1 + xp_8_0 + xp_8_1 + xp_9_0 + xp_10_0 + xp_10_1
 + xp_11_0 + xp_11_1 + xp_11_2 + xp_11_3 + xp_11_4 + xp_11_5 + xp_11_6
 + xp_12_0 + xp_13_0 + xp_13_1 + xp_14_0 + xp_14_1 + xp_14_2 + xp_14_3
 + xp_15_0 + xp_16_0 + xp_16_1 + xp_17_0 + xp_17_1 + xp_17_2 + xp_17_3
 + xp_17_4 + xp_17_5 + xp_17_6 + xp_17_7 + xp_17_8 + xp_17_9 + xp_17_10
 + xp_18_0 + xp_18_1 + xp_18_2 + xp_18_3 + xp_18_4 + xp_18_5 + xp_18_6
 + xp_19_0 + xp_19_1 + xp_19_2 + xp_19_3 + xp_19_4 + xp_19_5 + xp_19_6
 + xp_19_7 + xp_19_8 + xp_20_0 + xp_20_1 + xp_20_2 + xp_20_3 + xp_21_0
 + xp_21_1 + xp_21_2 + xp_21_3 + xp_21_4 + xp_21_5 + xp_22_0 + xp_22_1
 + xp_22_2 + xp_22_3 + xp_22_4 + xp_22_5 + xp_22_6 + xp_22_7 + xp_23_0
 + xp_23_1 + xp_23_2 + xp_23_3 + xp_23_4 + xp_23_5 + xp_23_6 + xp_23_7
 + xp_23_8 + xp_23_9 + xp_23_10 + xp_23_11

Subject To
 r_1: 0 xp_0_0 <= 25.5089820359281
 r_2: + xp_23_8 + xp_22_3 + xp_18_4 + xp_18_1 + xp_14_2 + xp_6_1
 + xp_5_2 + xp_2_2 <= 25.1553273427471
 r_3: + xp_23_3 + xp_21_3 + xp_19_7 + xp_18_6 + xp_18_3 + xp_17_4
 <= 25.8070099524016
 r_4: + xp_18_5 + xp_17_1 + xp_15_0 <= 25.8070099524016
 r_5: + xp_18_0 <= 24.9946660977171
 r_6: + xp_19_8 + xp_18_2 <= 25.3980019336126
 r_7: + xp_20_2 <= 25.5089820359281
 r_8: + xp_23_5 + xp_22_2 + xp_17_10 + xp_17_6 + xp_11_3 + xp_6_2
 + xp_5_1 + xp_3_3 + xp_3_2 + xp_2_1 <= 25.1553273427471
 r_9: + xp_23_2 + xp_22_7 + xp_17_9 + xp_11_5 + xp_11_1 + xp_3_1
 <= 25.8070099524016
 r_10: + xp_23_11 + xp_17_2 + xp_11_6 + xp_3_0 <= 25.8070099524016
 r_11: + xp_18_6 + xp_18_2 + xp_11_2 <= 24.9946660977171
 r_12: + xp_11_0 <= 25.3980019336126
 r_13: + xp_11_4 <= 26.6425279789335
 r_14: + xp_21_1 + xp_19_2 + xp_14_0 + xp_0_7 + xp_0_2
 <= 25.1553273427471
 r_15: + xp_21_0 + xp_19_4 <= 25.8070099524016
 r_16: + xp_22_1 + xp_21_5 + xp_19_6 + xp_14_3 + xp_0_5 + xp_0_4
 + xp_0_1 <= 25.7482284285119
 r_17: + xp_0_0 <= 24.9946660977171
 r_18: + xp_21_3 + xp_19_8 + xp_19_7 + xp_14_2 + xp_4_0
 <= 25.5089820359281
 r_19: + xp_19_0 <= 25.5089820359281
 r_20: + xp_21_4 + xp_21_2 + xp_19_5 + xp_19_3 + xp_19_1 + xp_14_1
 + xp_4_1 + xp_0_6 + xp_0_3 <= 26.6425279789335
 r_21: + xp_20_1 <= 25.1553273427471
 r_22: + xp_21_4 + xp_21_1 + xp_7_1 <= 25.8070099524016
 r_23: + xp_23_8 + xp_23_6 + xp_22_4 + xp_22_3 + xp_22_2 + xp_17_6
 + xp_3_2 <= 25.7482284285119
 r_24: + xp_23_5 + xp_23_4 + xp_18_4 + xp_17_10 + xp_17_5 + xp_6_3
 + xp_6_2 + xp_6_1 + xp_3_3 + xp_0_7 + xp_0_6 <= 25.3980019336126
 r_25: 0 xp_0_0 <= 26.6425279789335
 r_26: + xp_18_1 + xp_0_3 + xp_0_2 <= 24.9946660977171
 r_27: + xp_11_4 + xp_11_3 + xp_4_1 <= 25.1553273427471
 r_28: + xp_19_3 + xp_19_2 + xp_10_1 <= 25.1553273427471
 r_29: + xp_20_3 <= 25.8070099524016
 r_30: + xp_2_0 <= 25.8070099524016
 r_31: + xp_23_3 + xp_23_2 + xp_22_7 + xp_18_3 + xp_17_9 + xp_17_4
 + xp_11_5 + xp_3_1 + xp_2_5 + xp_2_4 <= 25.3980019336126
 r_32: + xp_2_3 <= 26.6425279789335
 r_33: + xp_11_1 + xp_2_2 <= 25.8070099524016
 r_34: + xp_19_7 + xp_19_5 + xp_19_4 + xp_18_6 + xp_2_1
 <= 25.8070099524016
 r_35: 0 xp_0_0 <= 25.7482284285119
 r_36: + xp_14_3 + xp_9_0 + xp_2_5 <= 25.7482284285119
 r_37: + xp_23_9 + xp_21_5 + xp_13_1 + xp_8_1 + xp_6_4 + xp_0_5
 <= 25.3980019336126
 r_38: + xp_23_10 + xp_23_8 + xp_23_6 + xp_1_1 <= 26.5090230242688
 r_39: + xp_19_6 + xp_17_8 + xp_17_6 + xp_3_2 + xp_0_4
 <= 25.8070099524016
 r_40: + xp_0_1 <= 24.9946660977171
 r_41: + xp_12_0 + xp_2_4 <= 25.3980019336126
 r_42: + xp_21_5 <= 25.3980019336126
 r_43: + xp_22_7 + xp_22_6 + xp_16_0 + xp_2_5 <= 25.3980019336126
 r_44: + xp_23_9 + xp_23_5 + xp_23_4 + xp_23_3 + xp_23_2 + xp_23_1
 + xp_16_1 + xp_1_2 <= 26.5090230242688
 r_45: + xp_17_10 + xp_17_9 + xp_17_7 + xp_17_5 + xp_17_4 + xp_11_5
 + xp_3_3 + xp_3_1 <= 25.8070099524016
 r_46: + xp_18_4 + xp_18_3 + xp_0_7 + xp_0_6 + xp_0_5
 <= 24.9946660977171
 r_47: + xp_22_5 + xp_16_1 + xp_13_1 <= 26.5090230242688
 r_48: + xp_13_0 <= 26.5090230242688
 r_49: + xp_17_3 <= 25.8070099524016
 r_50: 0 xp_0_0 <= 24.9946660977171
 r_51: + xp_8_1 + xp_1_1 <= 25.8070099524016
 r_52: + xp_8_0 + xp_1_2 <= 25.8070099524016
 r_53: + xp_23_11 + xp_23_7 + xp_1_0 <= 25.8070099524016
 r_54: + xp_18_5 + xp_0_4 <= 24.9946660977171
 r_55: + xp_11_6 + xp_11_5 <= 25.8070099524016
 r_56: + xp_19_6 <= 25.8070099524016
 r_57: + xp_22_1 <= 24.9946660977171
 r_58: + xp_23_6 + xp_23_4 + xp_22_4 + xp_17_5 + xp_6_3 + xp_5_0
 <= 24.9946660977171
 r_59: + xp_23_10 + xp_23_9 + xp_22_0 + xp_17_8 + xp_6_4
 <= 24.9946660977171
 r_60: + xp_23_1 + xp_22_6 + xp_17_7 + xp_6_0 <= 24.9946660977171
 r_61: + xp_23_0 + xp_22_5 + xp_17_3 <= 24.9946660977171
 r_62: + xp_23_7 + xp_17_0 <= 24.9946660977171
 r_63: + xp_23_8 + xp_23_3 + xp_22_3 + xp_17_4 + xp_17_1 + xp_11_2
 + xp_6_1 + xp_5_2 <= 24.9946660977171
 r_64: + xp_23_11 + xp_23_5 + xp_23_2 + xp_22_7 + xp_22_2 + xp_17_10
 + xp_17_9 + xp_17_6 + xp_17_2 + xp_6_2 + xp_5_1 <= 24.9946660977171
 r_65: + xp_21_4 + xp_20_1 + xp_19_3 + xp_14_1 + xp_11_4 + xp_10_1
 + xp_7_1 + xp_4_1 + xp_2_3 + xp_0_6 + xp_0_3 <= 26.6425279789335
 r_66: + xp_21_2 + xp_20_3 + xp_19_5 + xp_7_0 <= 26.6425279789335
 r_67: + xp_20_2 + xp_19_1 + xp_10_0 <= 26.6425279789335
 r_68: + xp_20_0 <= 26.6425279789335

Bounds
 0 <= xp_0_0 <= 29.1623061129932
 0 <= xp_0_1 <= 13.5707757787816
 0 <= xp_0_2 <= 10.3191032632953
 0 <= xp_0_3 <= 2.88236797951871
 0 <= xp_0_4 <= 6.83155095638677
 0 <= xp_0_5 <= 1.13859182606446
 0 <= xp_0_6 <= 1.3950209227634
 0 <= xp_0_7 <= 0.348755230690849
 0 <= xp_1_0 <= 19.58855010806
 0 <= xp_1_1 <= 15.6975036298307
 0 <= xp_1_2 <= 1.47025223907878
 0 <= xp_2_0 <= 25.1550094093229
 0 <= xp_2_1 <= 1.24458106196915
 0 <= xp_2_2 <= 6.21608286762397
 0 <= xp_2_3 <= 0.311145265492288
 0 <= xp_2_4 <= 3.00546341901819
 0 <= xp_2_5 <= 0.311145265492288
 0 <= xp_3_0 <= 26.0918678128289
 0 <= xp_3_1 <= 4.78001798671461
 0 <= xp_3_2 <= 1.13859182606446
 0 <= xp_3_3 <= 1.66855622305712
 0 <= xp_4_0 <= 22.976965224673
 0 <= xp_4_1 <= 4.37656480469962
 0 <= xp_5_0 <= 20.7886828223232
 0 <= xp_5_1 <= 2.18828240234981
 0 <= xp_5_2 <= 4.37656480469962
 0 <= xp_6_0 <= 19.6945416211483
 0 <= xp_6_1 <= 0.984727081057415
 0 <= xp_6_2 <= 1.96945416211483
 0 <= xp_6_3 <= 0.984727081057415
 0 <= xp_6_4 <= 0.984727081057415
 0 <= xp_7_0 <= 18.8739357202671
 0 <= xp_7_1 <= 4.71848393006678
 0 <= xp_8_0 <= 17.8071480491216
 0 <= xp_8_1 <= 3.39183772364221
 0 <= xp_9_0 <= 19.6603497086116
 0 <= xp_10_0 <= 18.8739357202671
 0 <= xp_10_1 <= 0.786413988344463
 0 <= xp_11_0 <= 27.962166567179
 0 <= xp_11_1 <= 16.2856068026459
 0 <= xp_11_2 <= 6.32892187195427
 0 <= xp_11_3 <= 10.5926476723236
 0 <= xp_11_4 <= 0.423975161087972
 0 <= xp_11_5 <= 0.423975161087972
 0 <= xp_11_6 <= 0.211987580543986
 0 <= xp_12_0 <= 18.4636327698265
 0 <= xp_13_0 <= 13.6425731021496
 0 <= xp_13_1 <= 4.30818097962619
 0 <= xp_14_0 <= 10.9414120117491
 0 <= xp_14_1 <= 3.41919125367158
 0 <= xp_14_2 <= 1.36767650146863
 0 <= xp_14_3 <= 1.36767650146863
 0 <= xp_15_0 <= 16.9249967056743
 0 <= xp_16_0 <= 14.9418657785448
 0 <= xp_16_1 <= 1.2992926763952
 0 <= xp_17_0 <= 26.5842290761739
 0 <= xp_17_1 <= 3.04991404390774
 0 <= xp_17_2 <= 1.13859182606446
 0 <= xp_17_3 <= 6.85205471799054
 0 <= xp_17_4 <= 1.13859182606446
 0 <= xp_17_5 <= 2.28743553293081
 0 <= xp_17_6 <= 1.52495702195387
 0 <= xp_17_7 <= 1.13859182606446
 0 <= xp_17_8 <= 2.28743553293081
 0 <= xp_17_9 <= 0.762478510976936
 0 <= xp_17_10 <= 0.762478510976936
 0 <= xp_18_0 <= 22.7444647737907
 0 <= xp_18_1 <= 1.36083584177764
 0 <= xp_18_2 <= 14.3298339599131
 0 <= xp_18_3 <= 2.72167168355527
 0 <= xp_18_4 <= 1.81900974695328
 0 <= xp_18_5 <= 1.36083584177764
 0 <= xp_18_6 <= 1.13859182606446
 0 <= xp_19_0 <= 29.3059121456475
 0 <= xp_19_1 <= 2.63961109346716
 0 <= xp_19_2 <= 2.63961109346716
 0 <= xp_19_3 <= 3.11830014616483
 0 <= xp_19_4 <= 3.29951386683394
 0 <= xp_19_5 <= 1.31980554673358
 0 <= xp_19_6 <= 1.31980554673358
 0 <= xp_19_7 <= 0.659902773366789
 0 <= xp_19_8 <= 0.659902773366789
 0 <= xp_20_0 <= 29.2033364080373
 0 <= xp_20_1 <= 5.51856785187497
 0 <= xp_20_2 <= 5.63139774747066
 0 <= xp_20_3 <= 3.75426516498044
 0 <= xp_21_0 <= 26.7004861331661
 0 <= xp_21_1 <= 3.85342057274509
 0 <= xp_21_2 <= 3.92864961187682
 0 <= xp_21_3 <= 3.85342057274509
 0 <= xp_21_4 <= 0.550488653249298
 0 <= xp_21_5 <= 3.34054643906165
 0 <= xp_22_0 <= 22.9051770100396
 0 <= xp_22_1 <= 1.4463144845276
 0 <= xp_22_2 <= 4.20560296483239
 0 <= xp_22_3 <= 4.20560296483239
 0 <= xp_22_4 <= 2.1028014824162
 0 <= xp_22_5 <= 3.72349813665652
 0 <= xp_22_6 <= 0.482104828175867
 0 <= xp_22_7 <= 1.4463144845276
 0 <= xp_23_0 <= 17.5199405381805
 0 <= xp_23_1 <= 7.13927361484991
 0 <= xp_23_2 <= 2.58490631059206
 0 <= xp_23_3 <= 4.37998513454512
 0 <= xp_23_4 <= 0.964209656351733
 0 <= xp_23_5 <= 1.62069665424033
 0 <= xp_23_6 <= 0.482104828175867
 0 <= xp_23_7 <= 1.62069665424033
 0 <= xp_23_8 <= 2.1028014824162
 0 <= xp_23_9 <= 1.13859182606446
 0 <= xp_23_10 <= 0.482104828175867
 0 <= xp_23_11 <= 0.482104828175867

End
